decision_x1=[0,4];
decision_x2=[0,4];
decision_x3=[0,4];
decision_x4=[0,4];
decision_x5=[0,4];
decision_x6=[0,4];
decision_x7=[0,4];
decision_x8=[0,4];
decision_x9=[0,4];
decision_x10=[0,4];
random_y3=[0,4];
random_y4=[0,4];
random_y5=[0,4];
random_y6=[0,4];
random_y7=[0,4];
random_y8=[0,4];
random_y9=[0,4];
random_y10=[0,4];
random_y1=[0,4];
random_y2=[0,4];
constraint_x2_x1=[
0,0,26|
0,1,26|
0,2,90|
0,3,46|
0,4,2.5|
1,0,37|
1,1,58|
1,2,24|
1,3,39|
1,4,77|
2,0,98|
2,1,85|
2,2,86|
2,3,94|
2,4,20|
3,0,95|
3,1,18|
3,2,26|
3,3,78|
3,4,88|
4,0,46|
4,1,81|
4,2,15|
4,3,6.4|
4,4,52|
];
constraint_x4_x1=[
0,0,96|
0,1,68|
0,2,1.8|
0,3,70|
0,4,39|
1,0,65|
1,1,84|
1,2,73|
1,3,58|
1,4,19|
2,0,57|
2,1,5.4|
2,2,98|
2,3,1.1|
2,4,6.8|
3,0,11|
3,1,16|
3,2,74|
3,3,12|
3,4,93|
4,0,33|
4,1,20|
4,2,59|
4,3,17|
4,4,34|
];
constraint_x5_x2=[
0,0,7|
0,1,93|
0,2,4.3|
0,3,51|
0,4,91|
1,0,76|
1,1,61|
1,2,71|
1,3,51|
1,4,66|
2,0,99|
2,1,9.3|
2,2,99|
2,3,41|
2,4,9|
3,0,36|
3,1,60|
3,2,36|
3,3,74|
3,4,15|
4,0,58|
4,1,54|
4,2,76|
4,3,3.2|
4,4,24|
];
constraint_x5_x3=[
0,0,70|
0,1,73|
0,2,45|
0,3,10|
0,4,71|
1,0,62|
1,1,43|
1,2,38|
1,3,33|
1,4,3.8|
2,0,53|
2,1,62|
2,2,27|
2,3,27|
2,4,43|
3,0,95|
3,1,1|
3,2,69|
3,3,78|
3,4,68|
4,0,66|
4,1,62|
4,2,84|
4,3,91|
4,4,74|
];
constraint_x6_x1=[
0,0,33|
0,1,68|
0,2,10|
0,3,98|
0,4,90|
1,0,41|
1,1,11|
1,2,37|
1,3,94|
1,4,12|
2,0,60|
2,1,74|
2,2,27|
2,3,16|
2,4,98|
3,0,70|
3,1,95|
3,2,35|
3,3,87|
3,4,2.8|
4,0,79|
4,1,25|
4,2,58|
4,3,91|
4,4,29|
];
constraint_x6_x3=[
0,0,7|
0,1,37|
0,2,6.8|
0,3,57|
0,4,77|
1,0,70|
1,1,67|
1,2,67|
1,3,54|
1,4,26|
2,0,41|
2,1,72|
2,2,23|
2,3,93|
2,4,69|
3,0,28|
3,1,34|
3,2,47|
3,3,15|
3,4,13|
4,0,70|
4,1,55|
4,2,14|
4,3,53|
4,4,50|
];
constraint_x7_x2=[
0,0,49|
0,1,13|
0,2,43|
0,3,67|
0,4,41|
1,0,13|
1,1,48|
1,2,20|
1,3,44|
1,4,40|
2,0,38|
2,1,80|
2,2,78|
2,3,17|
2,4,93|
3,0,21|
3,1,84|
3,2,27|
3,3,90|
3,4,69|
4,0,62|
4,1,32|
4,2,35|
4,3,51|
4,4,55|
];
constraint_x7_x5=[
0,0,36|
0,1,47|
0,2,85|
0,3,69|
0,4,17|
1,0,15|
1,1,99|
1,2,48|
1,3,30|
1,4,46|
2,0,32|
2,1,17|
2,2,22|
2,3,55|
2,4,86|
3,0,69|
3,1,87|
3,2,8.9|
3,3,66|
3,4,31|
4,0,0.81|
4,1,6.1|
4,2,54|
4,3,82|
4,4,12|
];
constraint_x8_x1=[
0,0,57|
0,1,57|
0,2,32|
0,3,78|
0,4,97|
1,0,35|
1,1,93|
1,2,85|
1,3,22|
1,4,18|
2,0,34|
2,1,26|
2,2,91|
2,3,20|
2,4,2.4|
3,0,83|
3,1,80|
3,2,55|
3,3,88|
3,4,65|
4,0,55|
4,1,61|
4,2,57|
4,3,44|
4,4,11|
];
constraint_x8_x2=[
0,0,22|
0,1,57|
0,2,30|
0,3,86|
0,4,27|
1,0,6.1|
1,1,62|
1,2,99|
1,3,78|
1,4,4.6|
2,0,22|
2,1,4.5|
2,2,53|
2,3,96|
2,4,69|
3,0,45|
3,1,27|
3,2,15|
3,3,59|
3,4,56|
4,0,72|
4,1,87|
4,2,39|
4,3,9|
4,4,96|
];
constraint_x8_x3=[
0,0,49|
0,1,15|
0,2,40|
0,3,17|
0,4,6.3|
1,0,61|
1,1,38|
1,2,67|
1,3,19|
1,4,96|
2,0,61|
2,1,48|
2,2,57|
2,3,71|
2,4,20|
3,0,94|
3,1,86|
3,2,60|
3,3,80|
3,4,54|
4,0,49|
4,1,70|
4,2,65|
4,3,33|
4,4,99|
];
constraint_x8_x4=[
0,0,50|
0,1,87|
0,2,93|
0,3,12|
0,4,73|
1,0,83|
1,1,21|
1,2,4|
1,3,3.7|
1,4,55|
2,0,15|
2,1,39|
2,2,46|
2,3,42|
2,4,35|
3,0,75|
3,1,59|
3,2,42|
3,3,65|
3,4,87|
4,0,83|
4,1,75|
4,2,29|
4,3,70|
4,4,5.8|
];
constraint_x9_x2=[
0,0,71|
0,1,76|
0,2,90|
0,3,42|
0,4,23|
1,0,13|
1,1,45|
1,2,90|
1,3,11|
1,4,98|
2,0,35|
2,1,67|
2,2,74|
2,3,79|
2,4,90|
3,0,74|
3,1,78|
3,2,32|
3,3,30|
3,4,18|
4,0,72|
4,1,4.7|
4,2,48|
4,3,25|
4,4,92|
];
constraint_x9_x3=[
0,0,92|
0,1,56|
0,2,98|
0,3,58|
0,4,36|
1,0,48|
1,1,83|
1,2,91|
1,3,13|
1,4,69|
2,0,25|
2,1,34|
2,2,65|
2,3,23|
2,4,55|
3,0,63|
3,1,81|
3,2,30|
3,3,14|
3,4,81|
4,0,78|
4,1,43|
4,2,62|
4,3,1e+02|
4,4,50|
];
constraint_x9_x4=[
0,0,20|
0,1,28|
0,2,86|
0,3,4.7|
0,4,32|
1,0,20|
1,1,68|
1,2,17|
1,3,42|
1,4,16|
2,0,6.7|
2,1,58|
2,2,57|
2,3,98|
2,4,24|
3,0,73|
3,1,80|
3,2,89|
3,3,34|
3,4,47|
4,0,19|
4,1,6.9|
4,2,61|
4,3,52|
4,4,9.4|
];
constraint_x9_x7=[
0,0,16|
0,1,18|
0,2,1.4|
0,3,19|
0,4,85|
1,0,4.2|
1,1,88|
1,2,19|
1,3,75|
1,4,43|
2,0,80|
2,1,95|
2,2,97|
2,3,13|
2,4,22|
3,0,38|
3,1,11|
3,2,11|
3,3,38|
3,4,74|
4,0,14|
4,1,62|
4,2,86|
4,3,55|
4,4,72|
];
constraint_x9_x8=[
0,0,39|
0,1,16|
0,2,40|
0,3,43|
0,4,35|
1,0,78|
1,1,1.1|
1,2,14|
1,3,96|
1,4,85|
2,0,13|
2,1,0.95|
2,2,16|
2,3,1e+02|
2,4,49|
3,0,5.6|
3,1,83|
3,2,68|
3,3,22|
3,4,28|
4,0,56|
4,1,87|
4,2,40|
4,3,8.6|
4,4,68|
];
constraint_x10_x2=[
0,0,13|
0,1,13|
0,2,20|
0,3,77|
0,4,60|
1,0,1.9|
1,1,93|
1,2,68|
1,3,84|
1,4,90|
2,0,40|
2,1,93|
2,2,7.3|
2,3,62|
2,4,64|
3,0,32|
3,1,7.8|
3,2,74|
3,3,40|
3,4,86|
4,0,91|
4,1,4.4|
4,2,59|
4,3,98|
4,4,21|
];
constraint_x10_x5=[
0,0,44|
0,1,25|
0,2,25|
0,3,32|
0,4,5.4|
1,0,73|
1,1,9.3|
1,2,12|
1,3,11|
1,4,87|
2,0,3.2|
2,1,70|
2,2,73|
2,3,2.4|
2,4,11|
3,0,24|
3,1,87|
3,2,15|
3,3,77|
3,4,32|
4,0,16|
4,1,16|
4,2,75|
4,3,34|
4,4,56|
];
constraint_x10_x6=[
0,0,32|
0,1,83|
0,2,61|
0,3,85|
0,4,61|
1,0,20|
1,1,36|
1,2,81|
1,3,89|
1,4,45|
2,0,49|
2,1,8.5|
2,2,39|
2,3,92|
2,4,92|
3,0,46|
3,1,67|
3,2,49|
3,3,43|
3,4,73|
4,0,27|
4,1,76|
4,2,16|
4,3,86|
4,4,89|
];
constraint_x10_x7=[
0,0,24|
0,1,24|
0,2,51|
0,3,17|
0,4,70|
1,0,52|
1,1,57|
1,2,42|
1,3,28|
1,4,73|
2,0,83|
2,1,73|
2,2,54|
2,3,77|
2,4,57|
3,0,94|
3,1,50|
3,2,48|
3,3,3.5|
3,4,44|
4,0,5.6|
4,1,40|
4,2,47|
4,3,3.1|
4,4,32|
];
constraint_x10_x8=[
0,0,43|
0,1,65|
0,2,92|
0,3,44|
0,4,2.5|
1,0,48|
1,1,31|
1,2,72|
1,3,60|
1,4,49|
2,0,84|
2,1,49|
2,2,51|
2,3,78|
2,4,27|
3,0,81|
3,1,43|
3,2,34|
3,3,60|
3,4,19|
4,0,73|
4,1,56|
4,2,1e+02|
4,3,45|
4,4,95|
];
constraint_x10_x9=[
0,0,90|
0,1,18|
0,2,62|
0,3,43|
0,4,86|
1,0,30|
1,1,55|
1,2,62|
1,3,77|
1,4,21|
2,0,29|
2,1,27|
2,2,12|
2,3,97|
2,4,11|
3,0,76|
3,1,32|
3,2,97|
3,3,55|
3,4,15|
4,0,77|
4,1,49|
4,2,70|
4,3,61|
4,4,68|
];
constraint_x3_y3=[
0,0,18|
0,1,88|
0,2,84|
0,3,78|
0,4,60|
1,0,48|
1,1,82|
1,2,43|
1,3,92|
1,4,23|
2,0,46|
2,1,74|
2,2,68|
2,3,38|
2,4,54|
3,0,12|
3,1,35|
3,2,50|
3,3,57|
3,4,3.2|
4,0,20|
4,1,45|
4,2,62|
4,3,27|
4,4,31|
];
constraint_x4_y4=[
0,0,38|
0,1,39|
0,2,38|
0,3,84|
0,4,62|
1,0,55|
1,1,72|
1,2,6.3|
1,3,90|
1,4,11|
2,0,33|
2,1,79|
2,2,70|
2,3,45|
2,4,88|
3,0,51|
3,1,84|
3,2,22|
3,3,84|
3,4,86|
4,0,90|
4,1,17|
4,2,42|
4,3,73|
4,4,32|
];
constraint_x5_y5=[
0,0,49|
0,1,2.2|
0,2,15|
0,3,67|
0,4,70|
1,0,50|
1,1,77|
1,2,57|
1,3,88|
1,4,62|
2,0,98|
2,1,38|
2,2,26|
2,3,63|
2,4,71|
3,0,91|
3,1,68|
3,2,26|
3,3,96|
3,4,58|
4,0,67|
4,1,86|
4,2,12|
4,3,68|
4,4,61|
];
constraint_x6_y6=[
0,0,13|
0,1,15|
0,2,16|
0,3,17|
0,4,16|
1,0,65|
1,1,9.2|
1,2,30|
1,3,88|
1,4,41|
2,0,90|
2,1,23|
2,2,55|
2,3,29|
2,4,50|
3,0,80|
3,1,62|
3,2,93|
3,3,7.5|
3,4,86|
4,0,90|
4,1,7.8|
4,2,67|
4,3,43|
4,4,4.4|
];
constraint_x7_y7=[
0,0,19|
0,1,89|
0,2,99|
0,3,20|
0,4,78|
1,0,37|
1,1,62|
1,2,68|
1,3,48|
1,4,82|
2,0,40|
2,1,23|
2,2,69|
2,3,28|
2,4,80|
3,0,16|
3,1,39|
3,2,2.9|
3,3,37|
3,4,93|
4,0,58|
4,1,54|
4,2,94|
4,3,54|
4,4,89|
];
constraint_x8_y8=[
0,0,52|
0,1,50|
0,2,87|
0,3,35|
0,4,34|
1,0,24|
1,1,63|
1,2,32|
1,3,20|
1,4,73|
2,0,48|
2,1,74|
2,2,1.2|
2,3,25|
2,4,60|
3,0,67|
3,1,82|
3,2,15|
3,3,91|
3,4,73|
4,0,95|
4,1,0.87|
4,2,90|
4,3,39|
4,4,53|
];
constraint_x9_y9=[
0,0,13|
0,1,95|
0,2,40|
0,3,4.7|
0,4,51|
1,0,94|
1,1,28|
1,2,68|
1,3,31|
1,4,31|
2,0,73|
2,1,74|
2,2,79|
2,3,14|
2,4,16|
3,0,47|
3,1,37|
3,2,84|
3,3,13|
3,4,40|
4,0,54|
4,1,49|
4,2,36|
4,3,38|
4,4,0.72|
];
constraint_x10_y10=[
0,0,85|
0,1,14|
0,2,25|
0,3,79|
0,4,62|
1,0,1.3|
1,1,34|
1,2,97|
1,3,37|
1,4,36|
2,0,43|
2,1,45|
2,2,6.1|
2,3,86|
2,4,99|
3,0,92|
3,1,77|
3,2,96|
3,3,57|
3,4,90|
4,0,27|
4,1,70|
4,2,29|
4,3,26|
4,4,62|
];
constraint_x1_y1=[
0,0,45|
0,1,1e+02|
0,2,47|
0,3,28|
0,4,67|
1,0,8.3|
1,1,84|
1,2,91|
1,3,16|
1,4,41|
2,0,66|
2,1,56|
2,2,6.6|
2,3,10|
2,4,96|
3,0,42|
3,1,40|
3,2,26|
3,3,27|
3,4,24|
4,0,28|
4,1,99|
4,2,22|
4,3,11|
4,4,91|
];
constraint_x2_y2=[
0,0,87|
0,1,94|
0,2,91|
0,3,1e+02|
0,4,81|
1,0,3.8|
1,1,53|
1,2,46|
1,3,38|
1,4,43|
2,0,73|
2,1,73|
2,2,74|
2,3,6.4|
2,4,63|
3,0,13|
3,1,28|
3,2,76|
3,3,43|
3,4,35|
4,0,71|
4,1,62|
4,2,65|
4,3,32|
4,4,7.4|
];
initial_distribution_y3=[0.22,0.19,0.2,0.19,0.21];
initial_distribution_y4=[0.24,0.18,0.13,0.22,0.22];
initial_distribution_y5=[0.48,0.077,0.23,0.17,0.036];
initial_distribution_y6=[0.084,0.24,0.32,0.23,0.13];
initial_distribution_y7=[0.12,0.16,0.33,0.25,0.14];
initial_distribution_y8=[0.21,0.31,0.11,0.11,0.25];
initial_distribution_y9=[0.21,0.12,0.29,0.14,0.25];
initial_distribution_y10=[0.28,0.2,0.14,0.25,0.15];
initial_distribution_y1=[0.16,0.18,0.38,0.26,0.027];
initial_distribution_y2=[0.18,0.25,0.17,0.19,0.2];
transition_y3=[
0.53,0.028,0.22,0.2,0.024|
0.24,0.057,0.19,0.28,0.23|
0.16,0.16,0.29,0.11,0.28|
0.19,0.23,0.22,0.25,0.11|
0.28,0.25,0.22,0.14,0.11|
];
transition_y4=[
0.052,0.16,0.43,0.25,0.11|
0.055,0.3,0.3,0.1,0.24|
0.024,0.34,0.25,0.37,0.014|
0.31,0.25,0.14,0.18,0.12|
0.2,0.25,0.24,0.033,0.28|
];
transition_y5=[
0.26,0.27,0.083,0.22,0.17|
0.12,0.37,0.11,0.24,0.16|
0.018,0.22,0.11,0.25,0.41|
0.17,0.18,0.22,0.013,0.42|
0.12,0.22,0.2,0.22,0.24|
];
transition_y6=[
0.13,0.14,0.26,0.26,0.21|
0.19,0.058,0.18,0.26,0.31|
0.17,0.26,0.22,0.22,0.12|
0.22,0.34,0.25,0.041,0.14|
0.29,0.077,0.011,0.35,0.27|
];
transition_y7=[
0.3,0.046,0.3,0.14,0.23|
0.24,0.16,0.2,0.17,0.23|
0.1,0.07,0.027,0.42,0.39|
0.2,0.39,0.085,0.08,0.25|
0.081,0.3,0.17,0.33,0.13|
];
transition_y8=[
0.038,0.014,0.35,0.31,0.29|
0.17,0.27,0.077,0.23,0.26|
0.021,0.31,0.2,0.15,0.33|
0.18,0.072,0.21,0.23,0.3|
0.24,0.082,0.079,0.35,0.24|
];
transition_y9=[
0.2,0.035,0.087,0.4,0.28|
0.25,0.28,0.27,0.12,0.078|
0.27,0.2,0.3,0.087,0.14|
0.47,0.3,0.14,0.07,0.032|
0.15,0.061,0.5,0.16,0.13|
];
transition_y10=[
0.34,0.17,0.18,0.26,0.05|
0.091,0.25,0.25,0.35,0.065|
0.037,0.24,0.27,0.3,0.15|
0.32,0.27,0.17,0.059,0.18|
0.35,0.067,0.36,0.039,0.19|
];
transition_y1=[
0.099,0.1,0.41,0.36,0.04|
0.17,0.09,0.18,0.39,0.17|
0.22,0.26,0.26,0.12,0.13|
0.3,0.026,0.084,0.27,0.32|
0.046,0.27,0.29,0.031,0.37|
];
transition_y2=[
0.12,0.12,0.31,0.2,0.25|
0.14,0.35,0.2,0.1,0.2|
0.11,0.061,0.36,0.13,0.34|
0.15,0.26,0.25,0.32,0.017|
0.27,0.07,0.22,0.23,0.21|
];
